(set-logic QF_S)
(declare-fun var0 () String)
(assert (str.in.re var0 (re.++ (re.+ (re.+ (str.to.re "0"))) (re.++ (re.* (re.union (str.to.re "11") (str.to.re "22"))) (re.++ (re.+ (re.union (str.to.re "333") (str.to.re "44"))) (re.++ (re.union (re.* (str.to.re "555")) (re.* (str.to.re "66"))) (re.++ (re.union (re.* (str.to.re "777")) (re.* (str.to.re "888"))) (re.++ (re.+ (re.union (str.to.re "9") (str.to.re "aa"))) (re.++ (re.* (re.* (str.to.re "bb"))) (re.++ (re.* (re.+ (str.to.re "cc"))) (re.++ (re.+ (re.+ (str.to.re "dd"))) (re.union (re.* (str.to.re "eee")) (re.* (str.to.re "ff"))))))))))))))
(assert (<= 301 (str.len var0)))
(check-sat)